<instance format="XCSP3" type="COP">
  <variables>
    <array id="x" note="x[i][j] is 1 if a coin is placed at row i and column j" size="[14][14]"> 0 1 </array>
  </variables>
  <constraints>
    <group>
      <sum>
        <list> %... </list>
        <condition> (eq,7) </condition>
      </sum>
      <args> x[0][] </args>
      <args> x[1][] </args>
      <args> x[2][] </args>
      <args> x[3][] </args>
      <args> x[4][] </args>
      <args> x[5][] </args>
      <args> x[6][] </args>
      <args> x[7][] </args>
      <args> x[8][] </args>
      <args> x[9][] </args>
      <args> x[10][] </args>
      <args> x[11][] </args>
      <args> x[12][] </args>
      <args> x[13][] </args>
    </group>
    <group>
      <sum>
        <list> %... </list>
        <condition> (eq,7) </condition>
      </sum>
      <args> x[][0] </args>
      <args> x[][1] </args>
      <args> x[][2] </args>
      <args> x[][3] </args>
      <args> x[][4] </args>
      <args> x[][5] </args>
      <args> x[][6] </args>
      <args> x[][7] </args>
      <args> x[][8] </args>
      <args> x[][9] </args>
      <args> x[][10] </args>
      <args> x[][11] </args>
      <args> x[][12] </args>
      <args> x[][13] </args>
    </group>
  </constraints>
  <objectives>
    <minimize type="sum">
      <list> x[][] </list>
      <coeffs> 0 1 4 9 16 25 36 49 64 81 100 121 144 169 1 0 1 4 9 16 25 36 49 64 81 100 121 144 4 1 0 1 4 9 16 25 36 49 64 81 100 121 9 4 1 0 1 4 9 16 25 36 49 64 81 100 16 9 4 1 0 1 4 9 16 25 36 49 64 81 25 16 9 4 1 0 1 4 9 16 25 36 49 64 36 25 16 9 4 1 0 1 4 9 16 25 36 49 49 36 25 16 9 4 1 0 1 4 9 16 25 36 64 49 36 25 16 9 4 1 0 1 4 9 16 25 81 64 49 36 25 16 9 4 1 0 1 4 9 16 100 81 64 49 36 25 16 9 4 1 0 1 4 9 121 100 81 64 49 36 25 16 9 4 1 0 1 4 144 121 100 81 64 49 36 25 16 9 4 1 0 1 169 144 121 100 81 64 49 36 25 16 9 4 1 0 </coeffs>
    </minimize>
  </objectives>
</instance>
